
Gurobi 9.5.0 (linux64) logging started Tue Nov  7 13:15:34 2023

Set parameter LogFile to value "/lustre1/scratch/348/vsc34888/JointResearch/05.Models/06.Benchmarking/D.Representative_days_based_on_RES_and_Demand/9n_ByStages_nc80/openStarNet_9n_ByStages_nc80.log"
Set parameter Method to value 2
Set parameter MIPFocus to value 1
Set parameter Presolve to value 2
Set parameter RINS to value 100
Set parameter MIPGap to value 0.01
Set parameter Threads to value 36
Set parameter TimeLimit to value 604800
Set parameter IterationLimit to value 760000000
Gurobi Optimizer version 9.5.0 build v9.5.0rc5 (linux64)
Thread count: 36 physical cores, 36 logical processors, using up to 36 threads
Optimize a model with 22106 rows, 11522 columns and 65975 nonzeros
Model fingerprint: 0x514ed3f7
Variable types: 11486 continuous, 36 integer (36 binary)
Coefficient statistics:
  Matrix range     [8e-04, 2e+03]
  Objective range  [1e+00, 1e+00]
  Bounds range     [4e-04, 2e+00]
  RHS range        [4e-04, 1e+00]
Presolve removed 7946 rows and 3825 columns
Presolve time: 0.07s
Presolved: 14160 rows, 7697 columns, 50141 nonzeros
Variable types: 7661 continuous, 36 integer (36 binary)
Found heuristic solution: objective 739.5604615
Root relaxation presolved: 14160 rows, 7697 columns, 50141 nonzeros

Root barrier log...

Ordering time: 0.01s

Barrier statistics:
 Dense cols : 36
 AA' NZ     : 1.906e+05
 Factor NZ  : 3.883e+05 (roughly 12 MB of memory)
 Factor Ops : 1.624e+07 (less than 1 second per iteration)
 Threads    : 36

                  Objective                Residual
Iter       Primal          Dual         Primal    Dual     Compl     Time
   0   3.74421086e+05 -3.03501143e+07  6.31e+00 1.75e+02  3.29e+03     0s
   1   5.30306683e+04 -8.68272892e+06  6.89e-01 4.93e-10  4.27e+02     0s
   2   1.28367022e+04 -1.17007264e+06  9.48e-03 6.58e-10  4.28e+01     0s
   3   4.23907813e+03 -2.29685828e+04  1.99e-06 7.42e-12  9.76e-01     0s
   4   8.33554745e+02 -4.69037586e+03  1.97e-09 1.46e-12  1.98e-01     0s
   5   5.43598682e+02 -1.34239043e+03  5.36e-10 9.09e-13  6.77e-02     0s
   6   3.64641991e+02 -6.27850611e+02  2.58e-10 9.09e-13  3.56e-02     0s
   7   2.11458245e+02 -2.63089655e+02  1.00e-10 4.55e-13  1.70e-02     0s
   8   1.25403133e+02 -9.70426640e+00  2.55e-11 6.82e-13  4.85e-03     0s
   9   1.12385329e+02  5.59330104e+01  1.71e-11 9.09e-13  2.03e-03     0s
  10   9.60055960e+01  6.99683248e+01  6.40e-12 4.55e-13  9.34e-04     0s
  11   8.93310357e+01  8.05192623e+01  2.72e-12 9.09e-13  3.16e-04     0s
  12   8.67860517e+01  8.38463096e+01  4.94e-12 9.09e-13  1.05e-04     0s
  13   8.64794559e+01  8.47199357e+01  1.91e-11 4.55e-13  6.31e-05     0s
  14   8.63053775e+01  8.50198790e+01  2.89e-10 9.09e-13  4.61e-05     0s
  15   8.56098310e+01  8.50790158e+01  8.55e-11 4.55e-13  1.90e-05     0s
  16   8.56079009e+01  8.52356970e+01  4.77e-10 4.55e-13  1.34e-05     0s
  17   8.55114054e+01  8.54199923e+01  2.17e-08 4.55e-13  3.28e-06     0s
  18   8.54831685e+01  8.54770539e+01  2.21e-09 9.09e-13  2.19e-07     0s
  19   8.54793849e+01  8.54793788e+01  1.79e-09 9.09e-13  2.20e-10     0s
  20   8.54793812e+01  8.54793812e+01  3.38e-10 9.09e-13  4.79e-16     0s

Barrier solved model in 20 iterations and 0.45 seconds (0.29 work units)
Optimal objective 8.54793812e+01


Root relaxation: objective 8.547938e+01, 600 iterations, 0.34 seconds (0.18 work units)

    Nodes    |    Current Node    |     Objective Bounds      |     Work
 Expl Unexpl |  Obj  Depth IntInf | Incumbent    BestBd   Gap | It/Node Time

     0     0   85.47938    0    6  739.56046   85.47938  88.4%     -    0s
H    0     0                     652.2202970   85.47938  86.9%     -    0s
H    0     0                      95.7459666   94.81580  0.97%     -    0s
     0     0   94.81580    0    1   95.74597   94.81580  0.97%     -    0s

Cutting planes:
  MIR: 137

Explored 1 nodes (1017 simplex iterations) in 0.71 seconds (0.44 work units)
Thread count was 36 (of 36 available processors)

Solution count 3: 95.746 652.22 739.56 

Optimal solution found (tolerance 1.00e-02)
Best objective 9.574596661457e+01, best bound 9.481579544635e+01, gap 0.9715%

Gurobi 9.5.0 (linux64) logging started Tue Nov  7 13:15:37 2023

Set parameter LogFile to value "/lustre1/scratch/348/vsc34888/JointResearch/05.Models/06.Benchmarking/D.Representative_days_based_on_RES_and_Demand/9n_ByStages_nc80/openStarNet_9n_ByStages_nc80.log"
Set parameter Method to value 2
Set parameter MIPFocus to value 1
Set parameter Presolve to value 2
Set parameter RINS to value 100
Set parameter MIPGap to value 0.01
Set parameter Threads to value 36
Set parameter TimeLimit to value 604800
Set parameter IterationLimit to value 760000000
No parameters matching 'relax_integrality' found
Gurobi Optimizer version 9.5.0 build v9.5.0rc5 (linux64)
Thread count: 36 physical cores, 36 logical processors, using up to 36 threads
Optimize a model with 22106 rows, 11486 columns and 54419 nonzeros
Model fingerprint: 0x5725244c
Coefficient statistics:
  Matrix range     [8e-04, 2e+03]
  Objective range  [1e+00, 1e+00]
  Bounds range     [4e-04, 2e+00]
  RHS range        [4e-04, 2e+01]
Presolve removed 19226 rows and 6465 columns
Presolve time: 0.02s
Presolved: 2880 rows, 5021 columns, 11021 nonzeros

Ordering time: 0.00s

Barrier statistics:
 AA' NZ     : 8.080e+03
 Factor NZ  : 2.960e+04 (roughly 3 MB of memory)
 Factor Ops : 3.646e+05 (less than 1 second per iteration)
 Threads    : 1

                  Objective                Residual
Iter       Primal          Dual         Primal    Dual     Compl     Time
   0   4.12958725e+05 -1.76719411e+07  4.09e+00 4.55e-13  3.85e+03     0s
   1   6.16727333e+04 -3.50606930e+06  4.36e-01 2.45e-12  4.61e+02     0s
   2   1.53462619e+04 -5.91089414e+05  1.67e-02 2.57e-12  5.69e+01     0s
   3   4.73347833e+03 -2.17920419e+04  1.69e-04 1.82e-12  2.41e+00     0s
   4   8.98040469e+02 -3.77463653e+03  3.41e-08 9.09e-13  4.25e-01     0s
   5   4.69573949e+02 -9.49934212e+02  1.59e-09 4.55e-13  1.29e-01     0s
   6   2.98382645e+02 -4.15749792e+02  7.06e-10 9.09e-13  6.49e-02     0s
   7   1.75679816e+02 -9.02051718e+01  2.08e-10 9.09e-13  2.42e-02     0s
   8   1.12063265e+02  4.54370375e+01  2.38e-11 9.09e-13  6.06e-03     0s
   9   1.00092951e+02  8.45537491e+01  5.45e-12 9.09e-13  1.41e-03     0s
  10   9.66785045e+01  9.18478219e+01  1.03e-12 9.09e-13  4.39e-04     0s
  11   9.59750226e+01  9.52139520e+01  2.88e-12 9.09e-13  6.92e-05     0s
  12   9.57821879e+01  9.55834796e+01  3.57e-12 9.09e-13  1.81e-05     0s
  13   9.57467167e+01  9.57442354e+01  5.77e-12 9.09e-13  2.26e-07     0s
  14   9.57459674e+01  9.57459649e+01  1.43e-12 9.09e-13  2.26e-10     0s
  15   9.57459666e+01  9.57459666e+01  1.44e-12 1.36e-12  2.26e-13     0s

Barrier solved model in 15 iterations and 0.05 seconds (0.05 work units)
Optimal objective 9.57459666e+01

Crossover log...

     943 DPushes remaining with DInf 0.0000000e+00                 0s
       0 DPushes remaining with DInf 0.0000000e+00                 0s

      92 PPushes remaining with PInf 0.0000000e+00                 0s
       0 PPushes remaining with PInf 0.0000000e+00                 0s

  Push phase complete: Pinf 0.0000000e+00, Dinf 1.2449070e-13      0s

Iteration    Objective       Primal Inf.    Dual Inf.      Time
     151    9.5745967e+01   0.000000e+00   0.000000e+00      0s

Solved in 151 iterations and 0.07 seconds (0.05 work units)
Optimal objective  9.574596661e+01

Gurobi 9.5.0 (linux64) logging started Wed Nov 15 15:07:24 2023

Set parameter LogFile to value "/lustre1/scratch/348/vsc34888/JointResearch/05.Models/06.Benchmarking/D.Representative_days_based_on_RES_and_Demand/9n_ByStages_nc80/openStarNet_9n_ByStages_nc80.log"
Set parameter Method to value 2
Set parameter MIPFocus to value 1
Set parameter Presolve to value 2
Set parameter RINS to value 100
Set parameter MIPGap to value 0.01
Set parameter Threads to value 36
Set parameter TimeLimit to value 604800
Set parameter IterationLimit to value 760000000
Gurobi Optimizer version 9.5.0 build v9.5.0rc5 (linux64)
Thread count: 36 physical cores, 36 logical processors, using up to 36 threads
Optimize a model with 22323 rows, 11626 columns and 67633 nonzeros
Model fingerprint: 0x81b96093
Variable types: 11590 continuous, 36 integer (36 binary)
Coefficient statistics:
  Matrix range     [8e-04, 2e+03]
  Objective range  [1e+00, 1e+00]
  Bounds range     [4e-04, 2e+00]
  RHS range        [4e-04, 1e+00]
Presolve removed 7986 rows and 3853 columns
Presolve time: 0.07s
Presolved: 14337 rows, 7773 columns, 50748 nonzeros
Variable types: 7737 continuous, 36 integer (36 binary)
Found heuristic solution: objective 814.0524833
Root relaxation presolved: 14337 rows, 7773 columns, 50748 nonzeros

Root barrier log...

Ordering time: 0.01s

Barrier statistics:
 Dense cols : 36
 AA' NZ     : 1.929e+05
 Factor NZ  : 3.864e+05 (roughly 12 MB of memory)
 Factor Ops : 1.582e+07 (less than 1 second per iteration)
 Threads    : 36

                  Objective                Residual
Iter       Primal          Dual         Primal    Dual     Compl     Time
   0   3.70098373e+05 -2.38404876e+07  6.23e+00 1.39e+02  2.53e+03     0s
   1   5.46488736e+04 -6.77549597e+06  7.03e-01 7.95e-10  3.31e+02     0s
   2   1.29536923e+04 -9.38814222e+05  7.76e-03 4.82e-10  3.40e+01     0s
   3   4.02516482e+03 -1.98040290e+04  4.84e-13 7.45e-12  8.46e-01     0s
   4   8.45388187e+02 -3.46979248e+03  3.35e-13 1.34e-12  1.53e-01     0s
   5   5.49031431e+02 -9.33657246e+02  2.78e-13 9.09e-13  5.26e-02     0s
   6   3.61718136e+02 -3.26632793e+02  1.60e-13 4.55e-13  2.44e-02     0s
   7   1.78316987e+02 -9.88974682e+01  2.17e-13 4.55e-13  9.84e-03     0s
   8   1.30383075e+02  2.81479715e+01  4.38e-13 4.55e-13  3.63e-03     0s
   9   9.67165550e+01  7.22608953e+01  3.53e-12 4.55e-13  8.68e-04     0s
  10   9.12565197e+01  8.26802322e+01  3.71e-12 4.55e-13  3.04e-04     0s
  11   8.95349035e+01  8.31229352e+01  9.30e-11 4.55e-13  2.28e-04     0s
  12   8.87720247e+01  8.33915794e+01  6.26e-11 4.55e-13  1.91e-04     0s
  13   8.74469825e+01  8.42789061e+01  2.36e-11 4.55e-13  1.12e-04     0s
  14   8.57161217e+01  8.52319589e+01  8.38e-12 4.55e-13  1.72e-05     0s
  15   8.54386046e+01  8.53392283e+01  7.51e-11 4.55e-13  3.53e-06     0s
  16   8.54057492e+01  8.53419839e+01  4.89e-11 4.55e-13  2.26e-06     0s
  17   8.53439033e+01  8.53435680e+01  3.31e-10 9.09e-13  1.19e-08     0s
  18   8.53438456e+01  8.53438410e+01  2.77e-09 4.55e-13  1.64e-10     0s
  19   8.53438411e+01  8.53438411e+01  4.75e-09 4.55e-13  6.98e-15     0s

Barrier solved model in 19 iterations and 0.42 seconds (0.30 work units)
Optimal objective 8.53438411e+01


Root relaxation: objective 8.534384e+01, 676 iterations, 0.32 seconds (0.19 work units)

    Nodes    |    Current Node    |     Objective Bounds      |     Work
 Expl Unexpl |  Obj  Depth IntInf | Incumbent    BestBd   Gap | It/Node Time

     0     0   85.34384    0    6  814.05248   85.34384  89.5%     -    0s
H    0     0                     717.2414588   85.34384  88.1%     -    0s
     0     0   93.39330    0    2  717.24146   93.39330  87.0%     -    0s
H    0     0                      95.8152160   93.39330  2.53%     -    0s
H    0     0                      94.3612970   93.39330  1.03%     -    0s
     0     0   93.58834    0    1   94.36130   93.58834  0.82%     -    0s

Cutting planes:
  MIR: 103
  Relax-and-lift: 52

Explored 1 nodes (1137 simplex iterations) in 0.73 seconds (0.49 work units)
Thread count was 36 (of 36 available processors)

Solution count 4: 94.3613 95.8152 717.241 814.052 

Optimal solution found (tolerance 1.00e-02)
Best objective 9.436129696381e+01, best bound 9.358833763024e+01, gap 0.8191%

Gurobi 9.5.0 (linux64) logging started Wed Nov 15 15:07:28 2023

Set parameter LogFile to value "/lustre1/scratch/348/vsc34888/JointResearch/05.Models/06.Benchmarking/D.Representative_days_based_on_RES_and_Demand/9n_ByStages_nc80/openStarNet_9n_ByStages_nc80.log"
Set parameter Method to value 2
Set parameter MIPFocus to value 1
Set parameter Presolve to value 2
Set parameter RINS to value 100
Set parameter MIPGap to value 0.01
Set parameter Threads to value 36
Set parameter TimeLimit to value 604800
Set parameter IterationLimit to value 760000000
No parameters matching 'relax_integrality' found
Gurobi Optimizer version 9.5.0 build v9.5.0rc5 (linux64)
Thread count: 36 physical cores, 36 logical processors, using up to 36 threads
Optimize a model with 22323 rows, 11590 columns and 55933 nonzeros
Model fingerprint: 0xd0ee0a7b
Coefficient statistics:
  Matrix range     [8e-04, 2e+03]
  Objective range  [1e+00, 1e+00]
  Bounds range     [4e-04, 2e+00]
  RHS range        [4e-04, 2e+01]
Presolve removed 19407 rows and 6526 columns
Presolve time: 0.02s
Presolved: 2916 rows, 5064 columns, 11139 nonzeros

Ordering time: 0.00s

Barrier statistics:
 AA' NZ     : 8.181e+03
 Factor NZ  : 2.997e+04 (roughly 3 MB of memory)
 Factor Ops : 3.692e+05 (less than 1 second per iteration)
 Threads    : 1

                  Objective                Residual
Iter       Primal          Dual         Primal    Dual     Compl     Time
   0   4.08348110e+05 -1.38922961e+07  4.08e+00 4.55e-13  2.98e+03     0s
   1   6.25860741e+04 -2.74529844e+06  4.45e-01 2.27e-12  3.58e+02     0s
   2   1.59972744e+04 -4.63358262e+05  1.79e-02 2.07e-12  4.46e+01     0s
   3   4.59676136e+03 -2.69978757e+04  3.97e-04 1.36e-12  2.85e+00     0s
   4   8.90342631e+02 -3.86181695e+03  1.19e-06 7.96e-13  4.28e-01     0s
   5   5.51237286e+02 -8.85798405e+02  1.52e-08 4.55e-13  1.29e-01     0s
   6   3.55500178e+02 -2.81695054e+02  6.96e-09 9.09e-13  5.74e-02     0s
   7   1.71629396e+02 -5.78961753e+01  1.67e-09 4.55e-13  2.07e-02     0s
   8   1.17256938e+02  5.97113613e+01  4.42e-10 4.55e-13  5.18e-03     0s
   9   9.93205848e+01  8.27654895e+01  8.69e-11 4.55e-13  1.49e-03     0s
  10   9.53329978e+01  9.05428006e+01  1.55e-11 4.55e-13  4.32e-04     0s
  11   9.45062177e+01  9.38495648e+01  3.60e-12 9.09e-13  5.92e-05     0s
  12   9.43696345e+01  9.43555018e+01  8.27e-12 9.09e-13  1.27e-06     0s
  13   9.43613056e+01  9.43612907e+01  1.74e-11 6.82e-13  1.34e-09     0s
  14   9.43612970e+01  9.43612970e+01  8.41e-12 9.09e-13  1.34e-12     0s

Barrier solved model in 14 iterations and 0.05 seconds (0.05 work units)
Optimal objective 9.43612970e+01

Crossover log...

     961 DPushes remaining with DInf 0.0000000e+00                 0s
       0 DPushes remaining with DInf 0.0000000e+00                 0s

     115 PPushes remaining with PInf 0.0000000e+00                 0s
       0 PPushes remaining with PInf 0.0000000e+00                 0s

  Push phase complete: Pinf 0.0000000e+00, Dinf 1.1105700e-13      0s

Iteration    Objective       Primal Inf.    Dual Inf.      Time
     157    9.4361297e+01   0.000000e+00   0.000000e+00      0s

Solved in 157 iterations and 0.06 seconds (0.05 work units)
Optimal objective  9.436129696e+01

Gurobi 10.0.0 (win64) logging started Thu Nov 30 22:18:34 2023

Set parameter LogFile to value "C:\Users\ealvarezq\Documents\GitHub\Comillas\Models\JointResearch\05. Models\06.Benchmarking\D.Representative_days_based_on_RES_and_Demand\9n_ByStages_nc80/openStarNet_9n_ByStages_nc80.log"
Set parameter Method to value 2
Set parameter MIPFocus to value 1
Set parameter Presolve to value 2
Set parameter RINS to value 100
Set parameter MIPGap to value 0.01
Set parameter Threads to value 9
Set parameter TimeLimit to value 259200
Set parameter IterationLimit to value 760000000
Gurobi Optimizer version 10.0.0 build v10.0.0rc2 (win64)

CPU model: Intel(R) Core(TM) i7-8700 CPU @ 3.20GHz, instruction set [SSE2|AVX|AVX2]
Thread count: 6 physical cores, 12 logical processors, using up to 9 threads

Optimize a model with 21226 rows, 11209 columns and 63992 nonzeros
Model fingerprint: 0x0c42df1b
Variable types: 11173 continuous, 36 integer (36 binary)
Coefficient statistics:
  Matrix range     [8e-04, 7e+02]
  Objective range  [1e+00, 1e+00]
  Bounds range     [4e-04, 2e+00]
  RHS range        [4e-04, 1e+00]
Presolve removed 7213 rows and 3811 columns
Presolve time: 0.07s
Presolved: 14013 rows, 7398 columns, 47862 nonzeros
Variable types: 7362 continuous, 36 integer (36 binary)
Found heuristic solution: objective 874.4922163
Root relaxation presolved: 14013 rows, 7398 columns, 47862 nonzeros

Root barrier log...

Ordering time: 0.00s

Barrier statistics:
 Dense cols : 36
 AA' NZ     : 1.660e+05
 Factor NZ  : 3.282e+05 (roughly 11 MB of memory)
 Factor Ops : 1.093e+07 (less than 1 second per iteration)
 Threads    : 9

                  Objective                Residual
Iter       Primal          Dual         Primal    Dual     Compl     Time
   0   4.85299514e+05 -2.11418331e+07  7.28e+00 1.33e+02  3.02e+03     0s
   1   8.17170928e+04 -8.60571369e+06  1.04e+00 8.93e-10  4.68e+02     0s
   2   1.55611686e+04 -1.58015180e+06  2.74e-02 6.61e-10  5.96e+01     0s
   3   5.52704611e+03 -4.29562278e+04  4.97e-14 1.75e-11  1.77e+00     0s
   4   1.22985366e+03 -1.10303870e+04  2.04e-14 3.89e-12  4.47e-01     0s
   5   9.22366302e+02 -3.12364976e+03  1.87e-14 1.12e-12  1.47e-01     0s
   6   6.94859730e+02 -1.03883288e+03  4.35e-14 3.91e-13  6.32e-02     0s
   7   3.26205830e+02 -1.60265211e+02  1.21e-13 3.88e-13  1.77e-02     0s
   8   1.89555383e+02  2.04906404e+01  3.00e-13 4.80e-13  6.16e-03     0s
   9   1.27528920e+02  6.36034041e+01  4.72e-12 4.49e-13  2.33e-03     0s
  10   1.01663736e+02  8.46373301e+01  1.06e-11 4.57e-13  6.21e-04     0s
  11   9.62575265e+01  8.83503230e+01  7.32e-12 6.96e-13  2.88e-04     0s
  12   9.21600165e+01  8.85342811e+01  1.80e-11 7.65e-13  1.32e-04     0s
  13   9.18474923e+01  8.90134316e+01  3.10e-11 4.46e-13  1.03e-04     0s
  14   9.07403425e+01  9.00829307e+01  1.17e-11 7.84e-13  2.40e-05     0s
  15   9.05051322e+01  9.02999721e+01  5.32e-11 4.65e-13  7.48e-06     0s
  16   9.04230111e+01  9.03115610e+01  1.00e-09 5.62e-13  4.06e-06     0s
  17   9.03142276e+01  9.03140418e+01  1.95e-11 4.32e-13  6.77e-09     0s
  18   9.03141201e+01  9.03141186e+01  3.88e-09 5.21e-13  5.48e-11     0s
  19   9.03141186e+01  9.03141186e+01  1.65e-10 9.13e-13  5.44e-16     0s

Barrier solved model in 19 iterations and 0.31 seconds (0.28 work units)
Optimal objective 9.03141186e+01


Root relaxation: objective 9.031412e+01, 618 iterations, 0.20 seconds (0.17 work units)

    Nodes    |    Current Node    |     Objective Bounds      |     Work
 Expl Unexpl |  Obj  Depth IntInf | Incumbent    BestBd   Gap | It/Node Time

     0     0   90.31412    0    5  874.49222   90.31412  89.7%     -    0s
H    0     0                     728.1984659   90.31412  87.6%     -    0s
     0     0   98.36358    0    1  728.19847   98.36358  86.5%     -    0s
H    0     0                     100.4921627   98.36358  2.12%     -    0s
H    0     0                      99.2588365   98.36358  0.90%     -    0s
     0     0   99.25884    0    1   99.25884   99.25884  0.00%     -    0s

Cutting planes:
  Gomory: 1
  MIR: 35
  RLT: 1
  Relax-and-lift: 22

Explored 1 nodes (973 simplex iterations) in 0.68 seconds (0.46 work units)
Thread count was 9 (of 12 available processors)

Solution count 4: 99.2588 100.492 728.198 874.492 

Optimal solution found (tolerance 1.00e-02)
Best objective 9.925883650936e+01, best bound 9.925883650936e+01, gap 0.0000%

Gurobi 10.0.0 (win64) logging started Thu Nov 30 22:18:36 2023

Set parameter LogFile to value "C:\Users\ealvarezq\Documents\GitHub\Comillas\Models\JointResearch\05. Models\06.Benchmarking\D.Representative_days_based_on_RES_and_Demand\9n_ByStages_nc80/openStarNet_9n_ByStages_nc80.log"
Set parameter Method to value 2
Set parameter MIPFocus to value 1
Set parameter Presolve to value 2
Set parameter RINS to value 100
Set parameter MIPGap to value 0.01
Set parameter Threads to value 9
Set parameter TimeLimit to value 259200
Set parameter IterationLimit to value 760000000
No parameters matching 'relax_integrality' found
Gurobi Optimizer version 10.0.0 build v10.0.0rc2 (win64)

CPU model: Intel(R) Core(TM) i7-8700 CPU @ 3.20GHz, instruction set [SSE2|AVX|AVX2]
Thread count: 6 physical cores, 12 logical processors, using up to 9 threads

Optimize a model with 21226 rows, 11173 columns and 52292 nonzeros
Model fingerprint: 0x8acfee5f
Coefficient statistics:
  Matrix range     [8e-04, 7e+02]
  Objective range  [1e+00, 1e+00]
  Bounds range     [4e-04, 2e+00]
  RHS range        [4e-04, 2e+01]
Presolve removed 19393 rows and 7486 columns
Presolve time: 0.02s
Presolved: 1833 rows, 3768 columns, 8163 nonzeros

Ordering time: 0.00s

Barrier statistics:
 AA' NZ     : 3.930e+03
 Factor NZ  : 1.922e+04 (roughly 2 MB of memory)
 Factor Ops : 2.658e+05 (less than 1 second per iteration)
 Threads    : 1

                  Objective                Residual
Iter       Primal          Dual         Primal    Dual     Compl     Time
   0   5.66143615e+05 -1.27192474e+07  7.24e+00 3.67e+02  8.38e+03     0s
   1   7.40885298e+04 -6.73664966e+06  7.59e-01 8.19e-12  1.30e+03     0s
   2   2.07552938e+04 -1.78823031e+06  5.06e-02 9.09e-12  2.28e+02     0s
   3   1.08015443e+04 -5.59833774e+04  2.89e-04 7.28e-12  7.78e+00     0s
   4   1.64884383e+03 -4.60121494e+03  1.08e-06 2.51e-12  7.28e-01     0s
   5   7.59179325e+02 -1.27787861e+03  1.59e-08 3.10e-12  2.37e-01     0s
   6   4.67245654e+02 -5.61827117e+02  6.58e-09 2.09e-12  1.20e-01     0s
   7   2.23127812e+02 -8.03901815e+01  1.50e-09 1.55e-12  3.53e-02     0s
   8   1.62362255e+02  2.05693086e+01  7.18e-10 1.30e-12  1.65e-02     0s
   9   1.16673224e+02  7.18527814e+01  1.74e-10 1.54e-12  5.22e-03     0s
  10   1.01510716e+02  9.49111476e+01  1.55e-11 1.66e-12  7.68e-04     0s
  11   9.95905043e+01  9.88829383e+01  1.91e-12 9.77e-13  8.24e-05     0s
  12   9.92861630e+01  9.91905974e+01  3.98e-13 1.08e-12  1.11e-05     0s
  13   9.92595722e+01  9.92581196e+01  4.99e-13 2.42e-12  1.69e-07     0s
  14   9.92588365e+01  9.92588365e+01  2.71e-14 1.52e-12  4.27e-13     0s

Barrier solved model in 14 iterations and 0.04 seconds (0.04 work units)
Optimal objective 9.92588365e+01

Crossover log...

     955 DPushes remaining with DInf 0.0000000e+00                 0s
       0 DPushes remaining with DInf 0.0000000e+00                 0s

      34 PPushes remaining with PInf 0.0000000e+00                 0s
       0 PPushes remaining with PInf 0.0000000e+00                 0s

  Push phase complete: Pinf 0.0000000e+00, Dinf 2.6583943e-13      0s

Iteration    Objective       Primal Inf.    Dual Inf.      Time
      80    9.9258837e+01   0.000000e+00   0.000000e+00      0s

Solved in 80 iterations and 0.05 seconds (0.04 work units)
Optimal objective  9.925883651e+01

Gurobi 11.0.0 (linux64) logging started Wed Apr 10 21:16:42 2024

Set parameter LogFile to value "/lustre1/scratch/348/vsc34888/JointResearch/05.Models/06.Benchmarking/D.Representative_days_based_on_RES_and_Demand/9n_ByStages_nc80/openStarNet_9n_ByStages_nc80.log"
Set parameter Method to value 2
Set parameter MIPFocus to value 1
Set parameter Presolve to value 2
Set parameter RINS to value 100
Set parameter MIPGap to value 0.01
Set parameter Threads to value 36
Set parameter TimeLimit to value 259200
Set parameter IterationLimit to value 760000000
Gurobi Optimizer version 11.0.0 build v11.0.0rc2 (linux64 - "Rocky Linux 8.8 (Green Obsidian)")

CPU model: Intel(R) Xeon(R) Gold 6140 CPU @ 2.30GHz, instruction set [SSE2|AVX|AVX2|AVX512]
Thread count: 36 physical cores, 36 logical processors, using up to 36 threads

Optimize a model with 20963 rows, 11058 columns and 63162 nonzeros
Model fingerprint: 0x65d56e90
Variable types: 11022 continuous, 36 integer (36 binary)
Coefficient statistics:
  Matrix range     [8e-04, 6e+02]
  Objective range  [1e+00, 1e+00]
  Bounds range     [4e-04, 2e+00]
  RHS range        [4e-04, 1e+00]
Presolve removed 7123 rows and 3764 columns
Presolve time: 0.08s
Presolved: 13840 rows, 7294 columns, 47258 nonzeros
Variable types: 7258 continuous, 36 integer (36 binary)
Found heuristic solution: objective 893.6912330
Root relaxation presolved: 13840 rows, 7294 columns, 47258 nonzeros

Root barrier log...

Ordering time: 0.01s

Barrier statistics:
 Dense cols : 36
 AA' NZ     : 1.639e+05
 Factor NZ  : 3.242e+05 (roughly 11 MB of memory)
 Factor Ops : 1.080e+07 (less than 1 second per iteration)
 Threads    : 36

                  Objective                Residual
Iter       Primal          Dual         Primal    Dual     Compl     Time
   0   4.84947801e+05 -2.00858391e+07  7.24e+00 1.28e+02  2.90e+03     0s
   1   8.09197516e+04 -8.14024340e+06  1.03e+00 9.41e-10  4.47e+02     0s
   2   1.51816537e+04 -1.46209870e+06  2.64e-02 3.59e-09  5.59e+01     0s
   3   4.90095554e+03 -3.94229854e+04  6.93e-14 9.42e-11  1.64e+00     0s
   4   1.21611299e+03 -1.02921328e+04  3.20e-14 2.21e-11  4.25e-01     0s
   5   8.50540104e+02 -2.49972830e+03  1.69e-14 5.42e-12  1.24e-01     0s
   6   5.88156091e+02 -1.08962508e+03  3.11e-14 2.36e-12  6.20e-02     0s
   7   3.19246723e+02 -3.13618762e+02  6.31e-14 7.78e-13  2.34e-02     0s
   8   1.61424922e+02 -1.05156980e+01  2.02e-13 4.55e-13  6.35e-03     0s
   9   1.18083413e+02  6.58512367e+01  1.39e-12 4.55e-13  1.93e-03     0s
  10   1.02806473e+02  7.67332553e+01  3.89e-12 4.55e-13  9.63e-04     1s
  11   9.69947565e+01  8.55773941e+01  4.72e-12 4.55e-13  4.22e-04     1s
  12   9.53920331e+01  8.65493083e+01  3.33e-12 4.55e-13  3.27e-04     1s
  13   9.17614173e+01  8.96514208e+01  7.63e-12 4.55e-13  7.80e-05     1s
  14   9.13261295e+01  9.01437940e+01  1.80e-11 6.82e-13  4.37e-05     1s
  15   9.12005494e+01  9.01569949e+01  2.37e-11 4.55e-13  3.86e-05     1s
  16   9.10001217e+01  9.02475609e+01  3.22e-10 4.55e-13  2.78e-05     1s
  17   9.05089625e+01  9.02915304e+01  7.97e-11 4.55e-13  8.03e-06     1s
  18   9.04174131e+01  9.04133047e+01  2.60e-11 4.55e-13  1.52e-07     1s
  19   9.04143347e+01  9.04138253e+01  9.53e-10 4.55e-13  1.88e-08     1s
  20   9.04138534e+01  9.04138525e+01  2.87e-09 4.55e-13  3.18e-11     1s

Barrier solved model in 20 iterations and 0.76 seconds (0.27 work units)
Optimal objective 9.04138534e+01


Root relaxation: objective 9.041385e+01, 612 iterations, 0.72 seconds (0.17 work units)

    Nodes    |    Current Node    |     Objective Bounds      |     Work
 Expl Unexpl |  Obj  Depth IntInf | Incumbent    BestBd   Gap | It/Node Time

     0     0   90.41385    0    5  893.69123   90.41385  89.9%     -    0s
H    0     0                     747.4868046   90.41385  87.9%     -    1s
     0     0   99.06845    0    1  747.48680   99.06845  86.7%     -    1s
H    0     0                     100.6778918   99.06845  1.60%     -    1s
H    0     0                     100.0577752   99.09620  0.96%     -    1s
     0     0   99.23534    0    1  100.05778   99.23534  0.82%     -    1s

Cutting planes:
  MIR: 35
  RLT: 1
  Relax-and-lift: 25

Explored 1 nodes (967 simplex iterations) in 1.63 seconds (0.45 work units)
Thread count was 36 (of 36 available processors)

Solution count 4: 100.058 100.678 747.487 893.691 

Optimal solution found (tolerance 1.00e-02)
Best objective 1.000577752289e+02, best bound 9.923534324320e+01, gap 0.8220%

Gurobi 11.0.0 (linux64) logging started Wed Apr 10 21:16:46 2024

Set parameter LogFile to value "/lustre1/scratch/348/vsc34888/JointResearch/05.Models/06.Benchmarking/D.Representative_days_based_on_RES_and_Demand/9n_ByStages_nc80/openStarNet_9n_ByStages_nc80.log"
Set parameter Method to value 2
Set parameter MIPFocus to value 1
Set parameter Presolve to value 2
Set parameter RINS to value 100
Set parameter MIPGap to value 0.01
Set parameter Threads to value 36
Set parameter TimeLimit to value 259200
Set parameter IterationLimit to value 760000000
Gurobi Optimizer version 11.0.0 build v11.0.0rc2 (linux64 - "Rocky Linux 8.8 (Green Obsidian)")

CPU model: Intel(R) Xeon(R) Gold 6140 CPU @ 2.30GHz, instruction set [SSE2|AVX|AVX2|AVX512]
Thread count: 36 physical cores, 36 logical processors, using up to 36 threads

Optimize a model with 20963 rows, 11022 columns and 51606 nonzeros
Model fingerprint: 0x77e61683
Coefficient statistics:
  Matrix range     [8e-04, 6e+02]
  Objective range  [1e+00, 1e+00]
  Bounds range     [4e-04, 2e+00]
  RHS range        [4e-04, 2e+01]
Presolve removed 19142 rows and 7398 columns
Presolve time: 0.02s
Presolved: 1821 rows, 3704 columns, 8066 nonzeros

Ordering time: 0.00s

Barrier statistics:
 AA' NZ     : 3.939e+03
 Factor NZ  : 1.921e+04 (roughly 2 MB of memory)
 Factor Ops : 2.671e+05 (less than 1 second per iteration)
 Threads    : 1

                  Objective                Residual
Iter       Primal          Dual         Primal    Dual     Compl     Time
   0   7.03070886e+05 -1.17799779e+07  6.22e+00 5.77e+02  7.84e+03     0s
   1   9.59859270e+04 -6.20614959e+06  7.37e-01 6.68e-12  1.27e+03     0s
   2   3.43173641e+04 -1.72295504e+06  1.81e-01 9.09e-12  2.77e+02     0s
   3   1.26454860e+04 -1.69881900e+05  9.73e-03 8.19e-12  2.24e+01     0s
   4   3.86626824e+03 -1.04358438e+04  6.27e-06 1.00e-10  1.69e+00     0s
   5   1.01991157e+03 -3.27689781e+03  2.85e-08 3.36e-11  5.08e-01     0s
   6   6.93848873e+02 -7.59888142e+02  7.06e-09 9.76e-12  1.72e-01     0s
   7   3.65367303e+02 -3.26985101e+02  2.77e-09 4.65e-12  8.18e-02     0s
   8   2.35169893e+02 -5.28598498e+01  1.31e-09 1.86e-12  3.40e-02     0s
   9   1.36946053e+02  5.13208178e+01  3.03e-10 1.82e-12  1.01e-02     0s
  10   1.06711377e+02  8.96291918e+01  4.09e-11 1.82e-12  2.02e-03     0s
  11   1.01653189e+02  9.77178573e+01  1.04e-11 1.36e-12  4.65e-04     0s
  12   1.00758160e+02  9.97023871e+01  4.33e-12 1.82e-12  1.25e-04     0s
  13   1.00153732e+02  1.00007108e+02  2.33e-12 1.82e-12  1.73e-05     0s
  14   1.00058670e+02  1.00055748e+02  1.21e-12 9.09e-13  3.45e-07     0s
  15   1.00057776e+02  1.00057773e+02  7.94e-13 1.82e-12  3.45e-10     0s
  16   1.00057775e+02  1.00057775e+02  2.55e-13 1.82e-12  3.45e-13     0s

Barrier solved model in 16 iterations and 0.05 seconds (0.04 work units)
Optimal objective 1.00057775e+02

Crossover log...

     940 DPushes remaining with DInf 0.0000000e+00                 0s
       0 DPushes remaining with DInf 0.0000000e+00                 0s

      36 PPushes remaining with PInf 0.0000000e+00                 0s
       0 PPushes remaining with PInf 0.0000000e+00                 0s

  Push phase complete: Pinf 0.0000000e+00, Dinf 2.2427199e-13      0s

Iteration    Objective       Primal Inf.    Dual Inf.      Time
      84    1.0005778e+02   0.000000e+00   0.000000e+00      0s

Solved in 84 iterations and 0.06 seconds (0.05 work units)
Optimal objective  1.000577752e+02
